Route #1: 44 2 36 19 21 17 22 34 
Route #2: 32 20 25 28 29 16 9 
Route #3: 35 40 31 24 41 30 4 
Route #4: 3 42 15 14 39 10 37 23 
Route #5: 27 11 12 38 43 33 6 8 
Route #6: 5 18 13 26 7 
cost 978.693
